
  32    4
  10   10   10   10

   0   0   0   0   0   3 2 3 31 
   1   1   1   1   0   2 30 4 
   8   6   5   3   0   2 30 4 
   4   1   3   0   1   2 8 5 
   3   7   0   5   3   2 12 6 
   1   6   3   0   5   2 29 7 
   3   4   0   2   4   2 20 9 
   6   0   3   5   9   3 15 12 10 
   8   5   5   0   3   2 15 10 
   4   2   3   0   4   2 23 11 
  10   2   5   5   0   2 19 13 
   7   4   4   4   0   2 23 13 
   1   8   2   0   3   1 14 
   5   0   5   9   4   2 28 16 
   4   0   7   2   4   4 28 27 22 18 
   3   4   0   4   3   1 17 
   1   8   0   5   4   3 27 22 18 
   9   4   0   3   4   3 26 25 21 
   1   0   7   4   3   1 21 
   2   0   4   5   4   1 21 
   1   0   5   2   5   1 24 
   8   4   3   4   0   1 25 
   3   0   3   6   3   1 28 
   5   0   5   5   5   1 32
   6   0   5   6   7   1 32
   6   3   0   3   3   1 32
   4   0   3   5   3   1 32
   7   3   2   2   0   1 32
   2   1   6   3   0   1 32
   6   3   4   3   0   1 32
   4   0   3   4   4   1 32
   0   0   0   0   0   0 
